-99 -99 000 -99 000 000 000 000 -99 -99 -99 -99 000 000 000 -99 000 -99 -99 000 000 000 000 000 000 000 000 000 000 -99 -99
-99 000 000 000 000 000 000 000 000 -99 -99 -99 -99 000 000 000 000 -99 -99 000 000 000 000 000 000 000 000 000 000 -99 -99
-99 000 000 000 000 000 000 000 000 000 -99 -99 -99 -99 000 000 -99 -99 000 -99 000 000 000 000 000 000 000 000 000 -99 -99
000 000 000 000 000 000 000 000 000 -99 -99 -99 -99 -99 000 000 -99 000 000 -99 000 000 000 000 000 000 000 000 000 000 -99
000 000 000 000 000 000 000 000 000 -99 -99 -99 000 000 000 000 -99 -99 000 000 000 000 000 000 000 000 -99 000 000 -99 -99
000 000 000 000 000 000 000 000 000 -99 -99 -99 000 -99 000 000 -99 -99 000 000 000 000 000 000 000 -99 -99 -99 -99 -99 -99
000 000 000 000 000 000 000 000 000 000 -99 -99 000 000 000 000 -99 000 000 -99 000 000 000 000 000 -99 -99 -99 -99 -99 -99
000 000 000 000 000 000 000 000 000 000 000 -99 -99 000 -99 -99 000 000 -99 -99 000 000 000 000 000 000 -99 -99 -99 000 000
000 000 000 000 000 000 000 -99 000 000 000 000 -99 -99 -99 -99 000 000 000 -99 000 000 -99 000 000 000 -99 -99 -99 000 000
000 000 000 000 000 000 000 000 000 000 000 000 -99 -99 -99 000 000 000 000 -99 000 000 -99 -99 000 000 -99 000 000 000 000
000 000 000 000 000 000 000 000 000 000 000 000 -99 -99 -99 000 000 000 000 -99 000 000 -99 -99 000 -99 000 000 000 000 000
000 000 000 000 000 000 000 000 000 000 000 000 -99 -99 -99 000 000 000 000 000 -99 -99 -99 000 000 -99 001 001 000 000 000
000 000 000 000 000 000 000 000 000 000 000 000 -99 -99 -99 000 000 -99 000 000 000 -99 000 000 000 000 000 003 000 000 000
000 000 000 000 000 000 000 000 -99 -99 000 000 -99 -99 -99 000 000 -99 -99 000 -99 000 000 000 000 000 000 005 -99 -99 000
000 000 000 000 000 000 000 000 000 -99 -99 -99 -99 000 000 000 000 000 000 -99 -99 000 -99 000 000 000 000 003 000 -99 -99
000 -99 -99 000 000 000 000 000 000 -99 -99 -99 -99 000 000 000 -99 000 000 -99 -99 -99 -99 -99 000 000 000 001 -99 -99 000
000 -99 -99 -99 000 000 000 000 000 -99 -99 -99 -99 000 000 000 000 000 000 -99 -99 -99 -99 -99 000 000 000 000 000 -99 -99
000 000 000 -99 -99 000 000 000 000 -99 -99 -99 -99 000 000 000 000 000 000 -99 -99 -99 -99 -99 000 -99 000 000 -99 -99 -99
000 000 000 000 -99 -99 000 000 000 000 -99 -99 -99 000 000 000 000 000 000 -99 000 000 -99 -99 -99 000 000 -99 -99 -99 -99
000 000 000 000 000 000 000 000 000 -99 000 000 -99 000 000 000 000 000 000 -99 000 000 -99 -99 -99 -99 -99 -99 -99 -99 -99
000 000 000 000 000 000 -99 -99 000 000 000 -99 -99 -99 000 000 000 000 000 000 000 000 000 -99 -99 -99 -99 -99 -99 -99 -99
000 000 000 000 000 000 -99 000 000 000 -99 -99 -99 -99 000 000 000 000 000 000 000 000 000 -99 -99 -99 -99 -99 -99 -99 -99
000 000 000 000 000 000 -99 000 000 000 -99 -99 -99 000 000 000 000 000 000 000 000 000 000 -99 -99 -99 -99 -99 -99 -99 -99
000 000 000 000 000 000 000 000 000 -99 -99 -99 000 000 000 000 000 000 000 000 000 000 000 -99 -99 -99 -99 -99 -99 -99 -99
000 000 000 000 000 000 000 000 000 -99 -99 -99 -99 000 000 000 000 000 000 000 000 000 000 -99 -99 -99 -99 -99 -99 -99 -99
000 000 000 000 000 000 000 000 000 -99 -99 -99 -99 000 000 000 000 000 000 000 000 000 -99 -99 -99 -99 -99 -99 -99 -99 000
000 000 000 000 000 000 000 000 000 000 000 -99 -99 000 000 000 000 000 000 000 000 000 -99 -99 -99 -99 -99 -99 -99 -99 000
000 000 000 -99 000 000 000 000 000 000 -99 -99 -99 000 000 000 000 000 000 000 000 000 -99 -99 -99 -99 -99 -99 -99 -99 000
000 000 000 000 000 000 000 000 000 -99 -99 -99 -99 -99 000 000 000 000 000 000 000 000 -99 -99 -99 -99 -99 -99 -99 -99 000
000 000 000 000 000 000 000 000 000 -99 -99 -99 -99 000 000 000 000 000 000 000 000 000 -99 -99 -99 -99 -99 -99 -99 -99 -99
000 000 000 000 000 000 000 000 000 -99 -99 -99 -99 000 000 000 000 000 000 000 -99 000 -99 -99 -99 -99 -99 -99 -99 -99 -99
000 000 000 000 000 000 000 000 000 -99 -99 -99 -99 000 000 -99 000 000 000 -99 -99 000 -99 -99 -99 -99 -99 -99 -99 -99 -99
000 000 000 000 000 000 -99 000 000 000 -99 -99 -99 000 000 000 000 000 000 -99 -99 000 -99 -99 -99 -99 -99 000 -99 -99 -99
000 000 000 000 000 000 000 000 000 -99 -99 000 -99 -99 000 000 000 000 000 -99 000 000 -99 -99 -99 -99 000 000 -99 -99 -99
000 000 000 000 000 000 000 000 000 -99 -99 000 000 000 000 000 000 000 -99 000 000 000 000 000 000 000 000 000 -99 -99 000
000 000 000 000 000 000 000 000 000 000 -99 -99 000 000 000 000 000 000 -99 000 000 000 000 000 000 000 000 000 000 000 000
000 000 -99 000 000 -99 -99 000 000 000 -99 -99 000 000 000 000 000 -99 000 000 000 000 000 000 000 000 000 -99 -99 000 000
-99 -99 -99 -99 000 000 -99 000 000 -99 -99 000 000 000 000 000 000 000 000 -99 000 000 -99 000 000 000 000 000 000 000 000
000 -99 000 -99 000 000 000 000 -99 -99 -99 000 000 000 000 000 000 000 000 -99 -99 -99 000 000 000 000 000 000 -99 000 000
-99 -99 000 000 000 -99 -99 000 -99 -99 -99 000 000 000 000 000 000 000 000 000 -99 -99 000 000 000 000 -99 -99 -99 000 000
000 000 000 000 000 000 -99 -99 -99 -99 000 000 000 000 000 000 000 -99 -99 -99 -99 -99 000 000 000 000 000 -99 -99 000 000
000 000 001 001 000 000 -99 -99 -99 -99 000 000 000 000 000 000 000 000 000 -99 -99 -99 000 000 000 000 -99 -99 -99 000 000
-99 -99 003 004 000 000 -99 -99 -99 000 000 000 000 000 000 000 000 000 000 000 -99 000 000 000 000 000 -99 -99 -99 000 000
000 000 002 009 -99 000 -99 -99 -99 000 000 000 000 000 000 000 -99 000 000 000 000 000 000 000 000 000 -99 -99 000 000 001
000 000 -99 -99 -99 -99 -99 -99 -99 000 -99 000 000 000 000 000 000 -99 -99 -99 -99 000 000 000 000 -99 000 000 -99 -99 001
000 -99 -99 -99 -99 -99 -99 -99 -99 -99 -99 000 000 000 000 -99 000 000 000 000 000 000 -99 000 000 000 000 000 -99 001 000
000 -99 -99 -99 -99 -99 -99 -99 -99 -99 -99 -99 000 000 -99 -99 -99 000 000 000 000 -99 000 000 000 000 000 -99 -99 000 000
-99 -99 -99 -99 -99 -99 -99 -99 -99 -99 -99 -99 000 -99 -99 -99 -99 000 000 -99 000 000 000 000 000 000 000 -99 000 000 000
-99 -99 -99 -99 -99 -99 -99 -99 -99 -99 -99 -99 000 -99 -99 -99 -99 000 -99 000 -99 000 000 000 000 000 -99 000 000 000 -99
-99 -99 -99 -99 -99 -99 -99 -99 -99 -99 -99 -99 -99 -99 -99 -99 -99 000 000 000 000 000 000 000 -99 -99 -99 000 000 -99 -99
-99 -99 -99 -99 -99 -99 -99 -99 -99 -99 -99 -99 -99 -99 -99 -99 -99 -99 000 000 000 000 000 -99 -99 -99 -99 000 000 -99 -99
-99 -99 -99 -99 -99 -99 -99 -99 -99 -99 -99 -99 -99 -99 -99 000 -99 -99 000 000 000 000 000 -99 -99 -99 -99 -99 -99 -99 -99
-99 -99 -99 -99 -99 -99 -99 -99 -99 -99 -99 -99 -99 -99 -99 -99 -99 000 000 000 000 000 -99 -99 -99 -99 -99 -99 -99 -99 -99
-99 -99 -99 -99 -99 -99 -99 -99 000 -99 -99 -99 -99 -99 -99 -99 000 000 000 000 000 000 000 -99 -99 -99 -99 -99 -99 -99 -99
-99 -99 -99 -99 -99 -99 -99 -99 -99 -99 -99 -99 -99 -99 -99 -99 000 000 -99 -99 000 000 -99 -99 -99 -99 -99 -99 -99 -99 -99
